
Gurobi 10.0.1 (linux64) logging started Sun Nov 26 15:41:53 2023

Set parameter LogFile to value "ArtificialInstance/ExperimentV2/S3T3K1/BaRo/gurobi91.txt"
Gurobi Optimizer version 10.0.1 build v10.0.1rc0 (linux64)

CPU model: AMD EPYC 7H12 64-Core Processor, instruction set [SSE2|AVX|AVX2]
Thread count: 128 physical cores, 128 logical processors, using up to 32 threads

Academic license 656792 - for non-commercial use only - registered to b.___@student.vu.nl
Optimize a model with 1083 rows, 1601 columns and 5443 nonzeros
Model fingerprint: 0x38755c43
Variable types: 1 continuous, 1600 integer (1600 binary)
Coefficient statistics:
  Matrix range     [1e+00, 4e+01]
  Objective range  [1e+00, 2e+01]
  Bounds range     [1e+00, 1e+00]
  RHS range        [1e+00, 1e+00]
Found heuristic solution: objective 496.7691780
Presolve time: 0.01s
Presolved: 1083 rows, 1601 columns, 5443 nonzeros
Variable types: 1 continuous, 1600 integer (1600 binary)

Root relaxation: objective 3.188057e+01, 847 iterations, 0.02 seconds (0.01 work units)

    Nodes    |    Current Node    |     Objective Bounds      |     Work
 Expl Unexpl |  Obj  Depth IntInf | Incumbent    BestBd   Gap | It/Node Time

     0     0   31.88057    0  168  496.76918   31.88057  93.6%     -    0s
H    0     0                     136.9494271   31.88057  76.7%     -    0s
H    0     0                      49.9180669   31.88057  36.1%     -    0s
     0     0   37.72417    0  154   49.91807   37.72417  24.4%     -    0s
H    0     0                      44.7026809   37.72417  15.6%     -    0s
H    0     0                      43.2799281   38.47321  11.1%     -    0s
     0     0   40.84328    0  278   43.27993   40.84328  5.63%     -    0s
     0     0   42.33728    0  258   43.27993   42.33728  2.18%     -    0s
     0     0   42.33728    0  163   43.27993   42.33728  2.18%     -    0s
     0     0   42.33728    0  185   43.27993   42.33728  2.18%     -    0s
     0     0   42.33728    0  180   43.27993   42.33728  2.18%     -    0s
     0     0   42.33728    0  202   43.27993   42.33728  2.18%     -    0s
     0     0   42.33728    0  209   43.27993   42.33728  2.18%     -    0s
     0     0   42.33728    0  198   43.27993   42.33728  2.18%     -    0s
     0     0   42.33728    0  254   43.27993   42.33728  2.18%     -    0s

Cutting planes:
  Gomory: 5
  Clique: 1
  Zero half: 31
  RLT: 12

Explored 1 nodes (4775 simplex iterations) in 0.47 seconds (0.24 work units)
Thread count was 32 (of 128 available processors)

Solution count 5: 43.2799 44.7027 49.9181 ... 496.769

Optimal solution found (tolerance 1.00e-04)
Best objective 4.327992811410e+01, best bound 4.327992811410e+01, gap 0.0000%
